1042.12 0
0 95 37 38 39 42 41 44 47 46 49 50 51 48 45 43 40 0
0 120 105 102 101 99 104 103 116 98 110 115 97 94 96 93 92 87 0
0 106 73 76 68 77 79 80 78 72 75 74 71 70 69 67 107 0
0 52 54 57 59 65 61 62 64 66 63 60 56 58 55 53 100 0
0 109 21 20 23 26 28 32 35 29 36 34 31 30 33 27 24 22 25 19 16 17 0
0 119 81 112 84 117 113 83 108 118 18 114 90 91 89 85 86 111 82 0
0 88 2 1 3 4 5 6 7 9 10 11 15 14 13 12 8 0